results/res_prop_muc/res_Cimatti_mathsat_cores/QF_LIA/SIMPLEBITADDER_COMPOSE_9.msat.smt.smt2.out
### boolMucExtractionTime 600036409
